50
1000
390
389
388
384
382
381
377
377
377
375
375
373
364
363
363
362
357
357
353
347
344
341
337
336
336
335
334
333
333
332
332
326
323
319
314
311
309
307
306
301
301
297
295
293
292
292
290
284
280
278
